SDVRP instances/p02/p02_1030_tsplib0_splitx10_0.vrp
NAME:.\SDVRP_splitx10_
BEST_KNOWN: 0
COMMENT: 0
DIMENSION: 315
CAPACITY: 1400
EDGE_WEIGHT_FORMAT: FUNCTION
EDGE_WEIGHT_TYPE: EXACT_2D
NODE_COORD_SECTION
1 0.00000 0.00000
2 -18 -18
3 -18 -18
4 -18 -18
5 -18 -18
6 -4 -14
7 -4 -14
8 -4 -14
9 -4 -14
10 -4 -14
11 -19 5
12 -19 5
13 -19 5
14 -19 5
15 -19 5
16 -19 5
17 5 -5
18 5 -5
19 15 -20
20 15 -20
21 15 -20
22 15 -20
23 15 -20
24 -7 -6
25 -7 -6
26 -7 -6
27 -7 -6
28 -7 -6
29 10 10
30 10 10
31 10 10
32 10 10
33 10 10
34 10 10
35 10 10
36 15 5
37 15 5
38 15 5
39 15 5
40 -14 19
41 -14 19
42 -14 19
43 -14 19
44 -14 19
45 0 26
46 15 25
47 15 25
48 15 25
49 -5 11
50 -5 11
51 -5 11
52 -5 11
53 -5 11
54 22 -5
55 22 -5
56 22 -5
57 22 -5
58 22 -5
59 22 -5
60 22 -5
61 22 17
62 22 -16
63 22 -16
64 22 -16
65 22 -16
66 22 -16
67 -19 -4
68 -19 -4
69 -19 -4
70 -7 4
71 -7 4
72 -7 4
73 -31 16
74 22 8
75 22 8
76 22 8
77 22 8
78 26 -26
79 26 -26
80 4 -27
81 4 -27
82 4 -27
83 -14 -27
84 -14 -27
85 -14 -27
86 -14 -27
87 -29 -12
88 -29 -12
89 -29 -12
90 -29 -12
91 -33 3
92 -33 3
93 -33 3
94 -23 24
95 -23 24
96 -23 24
97 1 6
98 1 6
99 1 6
100 1 6
101 1 6
102 1 6
103 15 -6
104 -5 -24
105 -5 -24
106 12 -14
107 12 -14
108 12 -14
109 12 -14
110 3 -14
111 3 -14
112 3 -14
113 -9 36
114 -9 36
115 -9 36
116 -9 36
117 -18 13
118 -18 13
119 -18 13
120 -14 -11
121 -14 -11
122 -14 -11
123 -14 -11
124 10 0
125 10 0
126 10 0
127 10 0
128 10 0
129 10 0
130 15 10
131 15 10
132 15 10
133 15 10
134 14 -30
135 14 -30
136 14 -30
137 14 -30
138 14 -30
139 14 -30
140 14 -30
141 20 -25
142 20 -25
143 7 26
144 7 26
145 7 26
146 7 26
147 7 26
148 7 26
149 7 26
150 -10 20
151 -10 20
152 -10 20
153 -10 20
154 -10 20
155 -10 20
156 -10 20
157 -10 10
158 -10 10
159 -10 10
160 -10 10
161 -28 -23
162 -28 -23
163 -28 -23
164 -28 -23
165 -28 -23
166 -25 -26
167 -25 -26
168 -24 -21
169 -24 -21
170 -24 -21
171 -24 -21
172 -19 8
173 -19 8
174 -19 8
175 -19 8
176 10 -10
177 10 -10
178 10 -10
179 10 -10
180 10 -10
181 11 2
182 11 2
183 10 -25
184 10 -25
185 10 -25
186 10 -25
187 10 -25
188 10 -25
189 10 -25
190 8 -19
191 8 -19
192 8 -19
193 8 -19
194 8 -19
195 8 -19
196 -28 -2
197 -28 -2
198 -28 -2
199 -28 -2
200 -25 16
201 -25 16
202 -25 16
203 -25 16
204 -11 -1
205 -11 -1
206 -11 -1
207 -11 -1
208 14 -2
209 14 -2
210 14 -2
211 14 -2
212 15 17
213 15 17
214 15 17
215 27 1
216 27 1
217 27 1
218 27 1
219 27 1
220 -30 30
221 -30 30
222 -30 30
223 -30 30
224 -30 30
225 -30 30
226 -34 -15
227 -34 -15
228 -34 -15
229 -34 -15
230 -34 -15
231 -34 -15
232 25 -13
233 25 -13
234 25 -13
235 0 20
236 0 20
237 0 20
238 0 20
239 0 20
240 30 24
241 30 24
242 30 24
243 30 24
244 30 24
245 24 -36
246 24 -36
247 24 -36
248 24 -36
249 -4 -34
250 -4 -34
251 -4 -34
252 -4 -34
253 -4 -34
254 -10 -20
255 -10 -20
256 -20 -10
257 -20 -10
258 -20 -10
259 -25 -35
260 -25 -35
261 -25 -35
262 10 30
263 10 30
264 10 30
265 10 30
266 17 32
267 17 32
268 17 32
269 17 32
270 17 32
271 17 32
272 17 32
273 5 2
274 5 2
275 5 2
276 5 2
277 -2 -7
278 -2 -7
279 -2 -7
280 10 -36
281 10 -36
282 10 -36
283 10 -36
284 10 -36
285 10 -36
286 10 -36
287 26 -32
288 26 -32
289 26 -32
290 26 -32
291 26 -32
292 19 -35
293 19 -35
294 19 -35
295 19 -35
296 19 -35
297 19 -35
298 -5 20
299 -5 20
300 -5 20
301 -5 20
302 -5 20
303 -13 -16
304 -13 -16
305 -13 -16
306 -13 -16
307 0 -20
308 0 -20
309 0 -20
310 0 -20
311 0 -20
312 0 -20
313 0 -20
314 0 -3
315 0 -3
DEMAND_SECTION
1 0
2 280
3 70
4 14
5 6
6 140
7 70
8 14
9 14
10 12
11 140
12 14
13 14
14 14
15 14
16 4
17 280
18 10
19 280
20 70
21 14
22 14
23 12
24 280
25 70
26 14
27 14
28 2
29 140
30 70
31 14
32 14
33 14
34 14
35 4
36 140
37 14
38 14
39 2
40 140
41 14
42 14
43 14
44 8
45 140
46 280
47 70
48 10
49 140
50 70
51 14
52 14
53 12
54 140
55 70
56 14
57 14
58 14
59 14
60 4
61 280
62 280
63 14
64 14
65 14
66 8
67 140
68 70
69 10
70 140
71 14
72 6
73 280
74 280
75 70
76 14
77 6
78 280
79 10
80 140
81 14
82 6
83 280
84 14
85 14
86 2
87 280
88 14
89 14
90 12
91 280
92 14
93 6
94 280
95 70
96 10
97 280
98 14
99 14
100 14
101 14
102 4
103 140
104 280
105 70
106 140
107 14
108 14
109 12
110 140
111 14
112 6
113 280
114 70
115 14
116 6
117 280
118 70
119 10
120 280
121 70
122 14
123 6
124 140
125 14
126 14
127 14
128 14
129 4
130 280
131 70
132 14
133 6
134 140
135 70
136 14
137 14
138 14
139 14
140 4
141 280
142 70
143 140
144 70
145 14
146 14
147 14
148 14
149 4
150 140
151 70
152 14
153 14
154 14
155 14
156 4
157 280
158 70
159 14
160 6
161 140
162 14
163 14
164 14
165 8
166 140
167 10
168 280
169 14
170 14
171 2
172 280
173 14
174 14
175 12
176 280
177 70
178 14
179 14
180 2
181 140
182 70
183 140
184 70
185 14
186 14
187 14
188 14
189 4
190 140
191 70
192 14
193 14
194 14
195 8
196 280
197 70
198 14
199 6
200 280
201 14
202 14
203 2
204 280
205 14
206 14
207 12
208 280
209 14
210 14
211 12
212 140
213 14
214 6
215 280
216 70
217 14
218 14
219 12
220 280
221 14
222 14
223 14
224 14
225 4
226 280
227 14
228 14
229 14
230 14
231 4
232 140
233 70
234 10
235 280
236 14
237 14
238 14
239 8
240 140
241 70
242 14
243 14
244 12
245 140
246 70
247 14
248 6
249 280
250 70
251 14
252 14
253 2
254 140
255 70
256 140
257 70
258 10
259 140
260 70
261 10
262 140
263 70
264 14
265 6
266 140
267 70
268 14
269 14
270 14
271 14
272 4
273 280
274 70
275 14
276 6
277 140
278 14
279 6
280 280
281 70
282 14
283 14
284 14
285 14
286 4
287 280
288 70
289 14
290 14
291 2
292 280
293 70
294 14
295 14
296 14
297 8
298 280
299 70
300 14
301 14
302 12
303 280
304 70
305 14
306 6
307 280
308 70
309 14
310 14
311 14
312 14
313 4
314 140
315 10
DEPOT_SECTION
1
-1
EOF