SDVRP instances/p02/p02_1030_tsplib0_splitx10_0.sol
314 -2 4 3 167 170 168 169 166 165 260 259 258 161 164 160 162 163 226 229 227 225 228 230 88 87 89 -17 16 209 210 207 208 180 181 123 127 126 124 128 125 -21 19 22 20 140 141 246 247 245 244 290 287 288 286 289 78 77 -24 25 27 23 26 121 122 119 120 1 302 305 304 303 -34 32 31 213 212 211 45 47 46 271 267 266 265 268 269 270 242 239 243 241 240 60 -37 35 38 36 76 74 73 75 215 214 218 217 216 58 54 55 53 59 57 56 102 -49 48 51 50 52 298 299 301 297 300 154 155 152 149 150 151 153 39 156 157 -68 67 66 196 197 195 198 92 91 90 86 257 256 255 -70 71 69 118 117 116 174 173 171 172 10 12 13 11 14 15 204 206 203 205 -99 100 97 101 98 96 33 29 30 28 129 132 130 131 274 275 272 273 -111 109 110 79 81 80 285 283 280 282 281 279 284 296 294 291 292 295 293 135 136 133 139 137 138 134 -145 143 144 147 148 142 146 264 261 263 262 113 115 114 112 44 236 238 237 235 234 -159 158 40 42 43 41 93 94 95 223 220 222 221 219 224 72 200 199 201 202 -177 178 175 176 179 108 105 106 107 18 62 65 64 63 61 233 231 232 -190 194 191 192 189 193 186 184 185 187 188 183 182 307 312 311 310 309 306 308 5 276 313 314 -254 253 85 82 84 83 250 252 248 249 251 104 103 9 8 6 7 277 278 0 





OBJ=
1139.995
BEST_KNOWN=
0.000